# LAMMPS input script for thermal conductivity of solid Ar

units       real
variable    T equal 70
variable    V equal vol
variable    dt equal 4.0
variable    p equal 200     # correlation length
variable    s equal 10      # sample interval
variable    d equal $p*$s   # dump interval

# convert from LAMMPS real units to SI

variable    kB equal 1.3806504e-23    # [J/K] Boltzmann
variable    kCal2J equal 4186.0/6.02214e23
variable    A2m equal 1.0e-10
variable    fs2s equal 1.0e-15
variable    convert equal ${kCal2J}*${kCal2J}/${fs2s}/${A2m}

# setup problem

dimension    3
boundary     p p p
lattice      fcc 5.376 orient x 1 0 0 orient y 0 1 0 orient z 0 0 1
region       box block 0 20 0 4 0 4
create_box   1 box
create_atoms 1 box
mass      1 39.948
pair_style   lj/cut 13.0
pair_coeff   * * 0.2381 3.405
timestep     ${dt}
thermo           100

# equilibration and thermalization

velocity     all create $T 102486 mom yes rot yes dist gaussian
fix          NVT all nvt temp $T $T 10 drag 0.2
run          8000

# thermal conductivity calculation, switch to NVE if desired

unfix       NVT

fix 1 all thermal/conductivity 50 x 20

reset_timestep 0

compute    ke all ke/atom
variable   temp atom c_ke/1.5
fix        2 all ave/spatial 10 100 1000 x lower 0.05 v_temp file tmp.profile units reduced
thermo_style custom step f_1
run 100000


